131 149 136 83 128 33 94 194 61 145 171 75 13 143 99 197 35 88 109 76 104 7 3 153 126 179 193 174 79 188 91 169 106 70 183 92 37 148 147 135 180 177 12 71 129 182 17 139 48 67 84 137 93 69 10 50 122 118 127 190 78 63 155 41 11 140 166 173 22 36 18 142 98 4 119 185 144 46 97 87 74 30 156 123 0 64 81 159 65 175 113 77 14 55 146 1 151 59 163 103 114 24 198 32 47 168 192 158 89 116 82 195 130 29 20 105 5 199 161 95 56 54 191 124 73 167 152 28 34 162 45 86 40 25 102 62 133 66 21 42 68 160 31 111 96 138 121 125 115 181 196 186 2 108 100 16 107 117 150 39 141 26 49 43 23 184 85 6 189 110 154 44 38 172 8 101 134 187 132 51 57 112 90 157 52 19 80 164 170 60 58 176 27 72 53 9 178 120 15 165 

